0 149 90
1 716 162
2 282 82
3 269 542
4 672 5
5 75 25
6 32 80
7 74 495
8 232 506
9 0 541
10 42 497
11 187 40
12 67 74
13 81 248
14 204 38
15 68 280
16 69 123
17 477 464
18 329 422
19 578 206
20 313 53
21 200 160
22 40 473
23 456 442
24 76 73
25 76 57
26 53 76
27 135 192
28 602 418
29 323 23
30 30 332
31 276 252
32 434 55
33 93 12
34 100 211